Optimizer called with the following parameters:
{'focal_plane_mask': {'field_stop_radius': None,
                      'grayscale': True,
                      'num_pix': 150,
                      'radius': 3.6},
 'image': {'bandwidth': 0.2,
           'contrast': 10,
           'iwa': 3.5,
           'num_wavelengths': 5,
           'owa': 14.0,
           'resolution': 2},
 'instrument': {'inst_name': 'USORT'},
 'lyot_stop': {'alignment_tolerance': 0,
               'filename': 'USORT/LS_USORT_circ_ID0000_OD0990_ovsamp16_N0128.fits',
               'num_lyot_stops': 1},
 'method': {'edge_width_for_prior': 2,
            'ending_scale': 1,
            'force_no_hermitian_symmetry': False,
            'force_no_x_mirror_symmetry': False,
            'force_no_y_mirror_symmetry': False,
            'initial_throughput_estimate': 1,
            'maximize_planet_throughput': True,
            'num_throughput_iterations': 2,
            'starting_scale': 1},
 'pupil': {'N': 128,
           'filename': 'USORT/TelAp_USORT_offaxis_ovsamp16_N0128.fits'},
 'solver': {'crossover': 0,
            'method': 2,
            'num_threads': 0}}

File organization:
{'analysis_dir': '/user/bnickson/GitHub/LUVex_TelAps/aplc_optimization/surveys/usort_offaxis_survey_N0128_telserv3/FPM36_IWA35/analysis',
 'drivers_dir': '/user/bnickson/GitHub/LUVex_TelAps/aplc_optimization/surveys/usort_offaxis_survey_N0128_telserv3/FPM36_IWA35/drivers',
 'input_files_dir': '/user/bnickson/GitHub/LUVex_TelAps/aplc_optimization/masks',
 'log_dir': '/user/bnickson/GitHub/LUVex_TelAps/aplc_optimization/surveys/usort_offaxis_survey_N0128_telserv3/FPM36_IWA35/logs',
 'solution_dir': '/user/bnickson/GitHub/LUVex_TelAps/aplc_optimization/surveys/usort_offaxis_survey_N0128_telserv3/FPM36_IWA35/solutions',
 'survey_dir': '/user/bnickson/GitHub/LUVex_TelAps/aplc_optimization/surveys/usort_offaxis_survey_N0128_telserv3/FPM36_IWA35'}

Telescope pupil:
   Mirror symmetry in x: yes
   Mirror symmetry in y: yes

Lyot stop #0:
   Mirror symmetry in x: yes
Lyot stop #0:
   Mirror symmetry in y: yes

Complete APLC:
   Mirror symmetry in x: yes
   Mirror symmetry in y: yes

Starting optimization at scale 1 with 2726 variables and 2895 constraints.
Creating model...
Set parameter Username
Academic license - for non-commercial use only - expires 2024-10-25
Set parameter Crossover to value 0
Set parameter Method to value 2
Calculating and adding constraints...
Wavelength 1/5; Variable 1000/2726
Wavelength 1/5; Variable 2000/2726
Wavelength 2/5; Variable 1000/2726
Wavelength 2/5; Variable 2000/2726
Wavelength 3/5; Variable 1000/2726
Wavelength 3/5; Variable 2000/2726
Wavelength 4/5; Variable 1000/2726
Wavelength 4/5; Variable 2000/2726
Wavelength 5/5; Variable 1000/2726
Wavelength 5/5; Variable 2000/2726
Start optimization...
Gurobi Optimizer version 10.0.3 build v10.0.3rc0 (linux64)

CPU model: Intel(R) Xeon(R) Gold 6146 CPU @ 3.20GHz, instruction set [SSE2|AVX|AVX2|AVX512]
Thread count: 24 physical cores, 48 logical processors, using up to 24 threads

Optimize a model with 5790 rows, 2726 columns and 15783540 nonzeros
Model fingerprint: 0x4a0e071f
Coefficient statistics:
  Matrix range     [5e-13, 5e-04]
  Objective range  [2e-03, 1e+00]
  Bounds range     [1e+00, 1e+00]
  RHS range        [1e-05, 1e-05]
Presolve removed 0 rows and 0 columns (presolve time = 6s) ...
Presolve time: 7.21s
Presolved: 2726 rows, 8516 columns, 15786266 nonzeros
Error: invalid user locale; possible fix is to set the system environment
       variable 'LC_ALL' to a valid locale (e.g., to 'C')
Ordering time: 0.07s

Barrier statistics:
 AA' NZ     : 3.714e+06
 Factor NZ  : 3.717e+06 (roughly 34 MB of memory)
 Factor Ops : 6.756e+09 (less than 1 second per iteration)
 Threads    : 24

                  Objective                Residual
Iter       Primal          Dual         Primal    Dual     Compl     Time
   0   5.67826397e+03  0.00000000e+00  0.00e+00 0.00e+00  9.85e-01    11s
   1   3.43669837e+03  6.42166803e+02  0.00e+00 1.69e-01  4.14e-01    11s
   2   2.41369091e+03  8.91321089e+02  0.00e+00 1.18e-01  2.37e-01    12s
   3   2.12946235e+03  1.03064769e+03  0.00e+00 9.25e-02  1.75e-01    13s
   4   1.94298351e+03  1.06193203e+03  0.00e+00 8.36e-02  1.49e-01    14s
   5   1.77438902e+03  1.14217997e+03  0.00e+00 6.44e-02  1.12e-01    15s
   6   1.59713890e+03  1.15015103e+03  0.00e+00 5.55e-02  9.08e-02    16s
   7   1.43292990e+03  1.14858519e+03  0.00e+00 4.74e-02  7.20e-02    17s
   8   1.24119091e+03  1.13943579e+03  0.00e+00 4.04e-02  5.14e-02    18s
   9   1.14591514e+03  1.11855646e+03  0.00e+00 3.38e-02  3.84e-02    19s
  10   1.10226375e+03  1.10199678e+03  0.00e+00 2.88e-02  3.09e-02    20s
  11   1.07846709e+03  1.08881280e+03  0.00e+00 2.62e-02  2.71e-02    20s
  12   1.05827584e+03  1.07312741e+03  0.00e+00 2.32e-02  2.35e-02    21s
  13   1.03992906e+03  1.07001882e+03  0.00e+00 2.26e-02  2.15e-02    22s
  14   1.02755596e+03  1.05258911e+03  0.00e+00 1.94e-02  1.83e-02    22s
  15   1.00264890e+03  1.04426064e+03  0.00e+00 1.78e-02  1.51e-02    23s
  16   9.87760927e+02  1.02962153e+03  0.00e+00 1.56e-02  1.27e-02    23s
  17   9.76763518e+02  1.02454273e+03  0.00e+00 1.48e-02  1.13e-02    24s
  18   9.49250905e+02  1.01253512e+03  0.00e+00 1.29e-02  7.88e-03    25s
  19   9.44191700e+02  9.95164276e+02  0.00e+00 1.05e-02  6.35e-03    26s
  20   9.40275679e+02  9.92365440e+02  0.00e+00 1.01e-02  5.81e-03    26s
  21   9.33000574e+02  9.73274070e+02  0.00e+00 7.31e-03  3.90e-03    27s
  22   9.27904962e+02  9.61963220e+02  0.00e+00 5.77e-03  2.80e-03    28s
  23   9.25139216e+02  9.53224081e+02  0.00e+00 4.58e-03  2.11e-03    28s
  24   9.22153586e+02  9.39195974e+02  0.00e+00 2.67e-03  1.15e-03    29s
  25   9.21180878e+02  9.37165138e+02  0.00e+00 2.39e-03  9.56e-04    30s
  26   9.20766365e+02  9.34266966e+02  0.00e+00 1.99e-03  8.00e-04    31s
  27   9.20150214e+02  9.29569995e+02  0.00e+00 1.38e-03  5.53e-04    31s
  28   9.19799656e+02  9.27753624e+02  0.00e+00 1.14e-03  4.46e-04    32s
  29   9.19689248e+02  9.26712870e+02  0.00e+00 1.00e-03  3.94e-04    33s
  30   9.19561912e+02  9.25542915e+02  0.00e+00 8.52e-04  3.34e-04    34s
  31   9.19177920e+02  9.22861138e+02  0.00e+00 5.17e-04  2.00e-04    35s
  32   9.18992382e+02  9.21562396e+02  0.00e+00 3.52e-04  1.32e-04    36s
  33   9.18920439e+02  9.20460261e+02  0.00e+00 2.12e-04  8.01e-05    36s
  34   9.18900674e+02  9.20011007e+02  0.00e+00 1.55e-04  6.04e-05    37s
  35   9.18862995e+02  9.19491079e+02  1.42e-06 8.96e-05  3.59e-05    38s
  36   9.18813989e+02  9.19176756e+02  1.00e-05 5.01e-05  1.91e-05    39s
  37   9.18802902e+02  9.18897192e+02  1.40e-05 1.48e-05  6.84e-06    40s
  38   9.18801346e+02  9.18874078e+02  3.56e-05 1.19e-05  5.73e-06    41s
  39   9.18798031e+02  9.18854082e+02  2.40e-05 9.36e-06  4.60e-06    42s
  40   9.18797207e+02  9.18843362e+02  2.33e-05 7.99e-06  4.08e-06    43s
  41   9.18795088e+02  9.18830334e+02  3.08e-05 6.34e-06  3.36e-06    45s
  42   9.18793558e+02  9.18813216e+02  3.23e-05 4.17e-06  2.53e-06    46s
  43   9.18792243e+02  9.18807078e+02  2.82e-05 3.39e-06  2.15e-06    47s
  44   9.18792248e+02  9.18806886e+02  2.42e-05 3.36e-06  2.14e-06    49s
  45   9.18791468e+02  9.18799441e+02  5.12e-05 2.41e-06  1.75e-06    50s
  46   9.18789466e+02  9.18797190e+02  7.37e-05 2.13e-06  1.15e-06    51s
  47   9.18788603e+02  9.18795056e+02  8.12e-05 1.85e-06  1.03e-06    52s
  48   9.18788639e+02  9.18794754e+02  8.10e-05 1.81e-06  1.01e-06    54s
  49   9.18788393e+02  9.18793931e+02  8.38e-05 1.71e-06  9.80e-07    55s
  50   9.18788415e+02  9.18793869e+02  9.64e-05 1.70e-06  9.59e-07    56s
  51   9.18788484e+02  9.18793858e+02  9.59e-05 1.70e-06  9.59e-07    57s
  52   9.18788619e+02  9.18793798e+02  9.52e-05 1.69e-06  9.56e-07    58s
  53   9.18787403e+02  9.18790413e+02  8.98e-05 1.27e-06  7.71e-07    60s
  54   9.18787124e+02  9.18790170e+02  1.04e-04 1.23e-06  7.44e-07    62s
  55   9.18786585e+02  9.18789590e+02  1.30e-04 1.16e-06  6.95e-07    63s
  56   9.18786649e+02  9.18789127e+02  1.47e-04 1.10e-06  6.68e-07    65s
  57   9.18784594e+02  9.18788895e+02  1.61e-04 1.07e-06  6.00e-07    66s
  58   9.18784437e+02  9.18788209e+02  1.63e-04 9.84e-07  5.77e-07    67s
  59   9.18784195e+02  9.18787969e+02  1.60e-04 9.53e-07  5.56e-07    68s
  60   9.18784107e+02  9.18787613e+02  1.56e-04 9.07e-07  5.41e-07    70s
  61   9.18784105e+02  9.18787523e+02  1.40e-04 8.96e-07  5.32e-07    71s
  62   9.18784273e+02  9.18787517e+02  1.53e-04 8.95e-07  5.32e-07    72s
  63   9.18784192e+02  9.18787203e+02  1.48e-04 8.58e-07  5.13e-07    73s
  64   9.18783920e+02  9.18786821e+02  1.35e-04 8.09e-07  4.87e-07    74s
  65   9.18783911e+02  9.18786597e+02  1.24e-04 7.80e-07  4.56e-07    75s
  66   9.18783893e+02  9.18786546e+02  1.36e-04 7.73e-07  4.49e-07    76s
  67   9.18783872e+02  9.18786345e+02  1.34e-04 7.47e-07  4.42e-07    77s
  68   9.18783944e+02  9.18786249e+02  1.35e-04 7.35e-07  4.32e-07    78s
  69   9.18783837e+02  9.18786248e+02  1.41e-04 7.35e-07  4.32e-07    79s
  70   9.18783837e+02  9.18786222e+02  1.43e-04 7.32e-07  4.30e-07    80s
  71   9.18782827e+02  9.18785710e+02  1.45e-04 6.67e-07  3.82e-07    81s
  72   9.18782684e+02  9.18785577e+02  1.49e-04 6.50e-07  3.69e-07    83s
  73   9.18782685e+02  9.18785411e+02  1.47e-04 6.28e-07  3.62e-07    84s
  74   9.18782623e+02  9.18783874e+02  1.37e-04 4.28e-07  2.33e-07    86s
  75   9.18783635e+02  9.18783604e+02  6.19e-04 3.93e-07  2.25e-07    88s
  76   9.18783786e+02  9.18783366e+02  5.79e-04 3.62e-07  2.10e-07    89s
  77   9.18783803e+02  9.18783235e+02  5.38e-04 3.45e-07  1.97e-07    91s
  78   9.18783636e+02  9.18783230e+02  5.20e-04 3.45e-07  1.95e-07    92s
  79   9.18783551e+02  9.18783161e+02  5.12e-04 3.35e-07  1.92e-07    93s
  80   9.18783148e+02  9.18782961e+02  4.50e-04 3.10e-07  1.76e-07    94s
  81   9.18782955e+02  9.18782892e+02  4.01e-04 3.01e-07  1.61e-07    95s
  82   9.18782895e+02  9.18782842e+02  3.89e-04 2.94e-07  1.57e-07    96s
  83   9.18782843e+02  9.18782808e+02  3.87e-04 2.90e-07  1.56e-07    97s
  84   9.18782707e+02  9.18782722e+02  3.77e-04 2.79e-07  1.51e-07    99s
  85   9.18782498e+02  9.18782700e+02  3.82e-04 2.76e-07  1.47e-07   100s
  86   9.18782489e+02  9.18782620e+02  3.65e-04 2.66e-07  1.42e-07   101s
  87   9.18782489e+02  9.18782577e+02  3.60e-04 2.60e-07  1.40e-07   102s
  88   9.18782370e+02  9.18782533e+02  3.57e-04 2.55e-07  1.38e-07   102s
  89   9.18782480e+02  9.18782527e+02  3.48e-04 2.54e-07  1.38e-07   103s
  90   9.18782220e+02  9.18782442e+02  3.05e-04 2.43e-07  1.30e-07   104s
  91   9.18782267e+02  9.18782432e+02  3.03e-04 2.42e-07  1.29e-07   105s
  92   9.18782231e+02  9.18782261e+02  2.92e-04 2.20e-07  1.23e-07   106s
  93   9.18782046e+02  9.18782133e+02  2.68e-04 2.03e-07  1.15e-07   107s
  94   9.18782044e+02  9.18782075e+02  2.84e-04 1.96e-07  1.10e-07   108s
  95   9.18782109e+02  9.18782061e+02  2.79e-04 1.94e-07  1.09e-07   109s
  96   9.18782030e+02  9.18782057e+02  2.73e-04 1.93e-07  1.08e-07   110s
  97   9.18781554e+02  9.18782046e+02  2.27e-04 1.92e-07  1.03e-07   111s
  98   9.18781673e+02  9.18782042e+02  2.25e-04 1.92e-07  1.01e-07   113s
  99   9.18781717e+02  9.18782041e+02  2.25e-04 1.91e-07  1.01e-07   113s
 100   9.18781576e+02  9.18782034e+02  2.26e-04 1.91e-07  1.00e-07   114s
 101   9.18781561e+02  9.18782008e+02  2.22e-04 1.87e-07  9.92e-08   116s
 102   9.18781585e+02  9.18781965e+02  2.26e-04 1.82e-07  9.79e-08   117s
 103   9.18781574e+02  9.18781963e+02  2.40e-04 1.81e-07  9.77e-08   118s
 104   9.18781479e+02  9.18781926e+02  2.43e-04 1.77e-07  9.56e-08   119s
 105   9.18781454e+02  9.18781847e+02  2.43e-04 1.66e-07  9.10e-08   120s
 106   9.18781425e+02  9.18781816e+02  2.45e-04 1.62e-07  8.94e-08   121s
 107   9.18781404e+02  9.18781740e+02  2.39e-04 1.52e-07  8.40e-08   122s
 108   9.18781511e+02  9.18781733e+02  2.30e-04 1.52e-07  8.31e-08   123s
 109   9.18781544e+02  9.18781734e+02  2.33e-04 1.52e-07  8.31e-08   124s
 110   9.18781527e+02  9.18781697e+02  2.02e-04 1.47e-07  7.73e-08   125s
 111   9.18781582e+02  9.18781618e+02  2.03e-04 1.37e-07  7.49e-08   126s
 112   9.18781667e+02  9.18781569e+02  2.00e-04 1.31e-07  7.30e-08   128s
 113   9.18781518e+02  9.18781534e+02  2.09e-04 1.26e-07  6.92e-08   129s
 114   9.18781513e+02  9.18781498e+02  2.08e-04 1.21e-07  6.81e-08   130s
 115   9.18781349e+02  9.18781415e+02  1.99e-04 1.11e-07  6.39e-08   131s
 116   9.18781452e+02  9.18781413e+02  1.89e-04 1.11e-07  6.38e-08   132s
 117   9.18781408e+02  9.18781400e+02  1.80e-04 1.09e-07  6.30e-08   133s
 118   9.18781526e+02  9.18781401e+02  1.83e-04 1.09e-07  6.30e-08   134s
 119   9.18781583e+02  9.18781400e+02  1.91e-04 1.09e-07  6.29e-08   135s
 120   9.18781353e+02  9.18781377e+02  2.02e-04 1.06e-07  5.99e-08   136s
 121   9.18779885e+02  9.18781371e+02  2.21e-04 1.05e-07  5.81e-08   137s
 122   9.18779976e+02  9.18781299e+02  2.27e-04 9.59e-08  5.53e-08   140s
 123   9.18779482e+02  9.18781175e+02  1.97e-04 7.98e-08  4.87e-08   142s
 124   9.18779446e+02  9.18781166e+02  2.01e-04 7.86e-08  4.82e-08   143s
 125   9.18779438e+02  9.18781164e+02  1.99e-04 7.84e-08  4.81e-08   144s
 126   9.18779469e+02  9.18781163e+02  2.00e-04 7.82e-08  4.81e-08   145s
 127   9.18779564e+02  9.18780909e+02  1.80e-04 4.61e-08  4.10e-08   146s
 128   9.18779632e+02  9.18780855e+02  1.41e-04 3.94e-08  3.64e-08   148s
 129   9.18779805e+02  9.18780852e+02  1.33e-04 3.90e-08  3.55e-08   149s
 130   9.18779666e+02  9.18780810e+02  1.11e-04 3.36e-08  3.23e-08   151s
 131   9.18779666e+02  9.18780810e+02  1.12e-04 3.36e-08  3.23e-08   152s
 132   9.18780096e+02  9.18780789e+02  1.74e-04 3.11e-08  3.13e-08   154s
 133   9.18780129e+02  9.18780783e+02  1.56e-04 3.02e-08  2.79e-08   155s
 134   9.18780149e+02  9.18780740e+02  1.40e-04 2.46e-08  2.53e-08   156s
 135   9.18780126e+02  9.18780740e+02  1.40e-04 2.46e-08  2.53e-08   157s
 136   9.18780210e+02  9.18780730e+02  1.41e-04 2.33e-08  2.50e-08   159s
 137   9.18780234e+02  9.18780724e+02  1.44e-04 2.26e-08  2.46e-08   160s
 138   9.18780274e+02  9.18780715e+02  1.42e-04 2.13e-08  2.41e-08   161s
 139   9.18780452e+02  9.18780710e+02  1.37e-04 2.07e-08  2.37e-08   161s
 140   9.18780406e+02  9.18780707e+02  1.30e-04 2.00e-08  2.32e-08   162s
 141   9.18780585e+02  9.18780702e+02  1.18e-04 1.95e-08  2.16e-08   163s
 142   9.18780653e+02  9.18780700e+02  1.18e-04 1.92e-08  2.14e-08   164s
 143   9.18780741e+02  9.18780694e+02  1.21e-04 1.82e-08  2.06e-08   166s
 144   9.18781040e+02  9.18780690e+02  1.24e-04 1.77e-08  1.95e-08   167s
 145   9.18781190e+02  9.18780674e+02  1.23e-04 1.58e-08  1.77e-08   168s
 146   9.18781252e+02  9.18780672e+02  1.20e-04 1.56e-08  1.76e-08   169s
 147   9.18781367e+02  9.18780669e+02  1.22e-04 1.51e-08  1.65e-08   171s
 148   9.18781407e+02  9.18780668e+02  1.27e-04 1.50e-08  1.62e-08   171s
 149   9.18781390e+02  9.18780664e+02  1.13e-04 1.44e-08  1.45e-08   172s
 150   9.18781471e+02  9.18780649e+02  1.13e-04 1.25e-08  1.37e-08   174s
 151   9.18780785e+02  9.18780644e+02  8.67e-05 1.20e-08  1.25e-08   175s
 152   9.18780815e+02  9.18780643e+02  7.99e-05 1.19e-08  1.24e-08   176s
 153   9.18780656e+02  9.18780642e+02  8.98e-05 1.17e-08  1.19e-08   177s
 154   9.18780510e+02  9.18780640e+02  9.32e-05 1.15e-08  1.16e-08   178s
 155   9.18780471e+02  9.18780633e+02  9.76e-05 1.06e-08  1.12e-08   179s
 156   9.18780400e+02  9.18780632e+02  9.12e-05 1.04e-08  1.10e-08   180s
 157   9.18780480e+02  9.18780627e+02  9.56e-05 9.75e-09  1.07e-08   181s
 158   9.18780438e+02  9.18780626e+02  9.20e-05 9.75e-09  1.07e-08   182s
 159   9.18780428e+02  9.18780624e+02  8.89e-05 9.48e-09  1.05e-08   183s
 160   9.18780431e+02  9.18780623e+02  1.08e-04 9.35e-09  1.02e-08   184s
 161   9.18780350e+02  9.18780623e+02  1.11e-04 9.26e-09  1.02e-08   185s
 162   9.18780384e+02  9.18780623e+02  1.06e-04 9.25e-09  1.01e-08   185s
 163   9.18780364e+02  9.18780622e+02  1.16e-04 9.25e-09  1.01e-08   186s
 164   9.18779979e+02  9.18780611e+02  1.05e-04 8.19e-09  8.69e-09   188s
 165   9.18780013e+02  9.18780611e+02  1.04e-04 8.17e-09  8.65e-09   189s
 166   9.18780002e+02  9.18780609e+02  1.03e-04 7.94e-09  8.56e-09   191s
 167   9.18779979e+02  9.18780609e+02  1.01e-04 7.91e-09  8.54e-09   192s
 168   9.18779969e+02  9.18780609e+02  1.02e-04 7.90e-09  8.53e-09   193s
 169   9.18779962e+02  9.18780608e+02  1.01e-04 7.77e-09  8.36e-09   194s
 170   9.18779912e+02  9.18780607e+02  9.27e-05 7.73e-09  8.23e-09   196s
 171   9.18779965e+02  9.18780604e+02  9.99e-05 7.23e-09  7.79e-09   197s
 172   9.18779951e+02  9.18780604e+02  9.89e-05 7.08e-09  7.74e-09   198s
 173   9.18779953e+02  9.18780604e+02  9.94e-05 7.08e-09  7.73e-09   200s
 174   9.18779951e+02  9.18780600e+02  9.36e-05 6.65e-09  7.56e-09   201s
 175   9.18780882e+02  9.18780592e+02  1.12e-04 6.14e-09  6.76e-09   203s
 176   9.18780388e+02  9.18780584e+02  1.48e-04 5.11e-09  5.88e-09   204s
 177   9.18780540e+02  9.18780581e+02  1.88e-04 4.70e-09  5.37e-09   206s
 178   9.18780541e+02  9.18780581e+02  1.91e-04 4.65e-09  5.34e-09   207s
 179   9.18780430e+02  9.18780581e+02  1.98e-04 4.64e-09  5.33e-09   208s
 180   9.18780461e+02  9.18780580e+02  1.98e-04 4.63e-09  5.32e-09   209s
 181   9.18780318e+02  9.18780580e+02  1.98e-04 4.56e-09  5.10e-09   210s
 182   9.18780125e+02  9.18780579e+02  1.97e-04 4.50e-09  4.95e-09   212s
 183   9.18779945e+02  9.18780578e+02  1.93e-04 4.45e-09  4.89e-09   213s
 184   9.18780500e+02  9.18780577e+02  1.91e-04 4.19e-09  4.58e-09   214s
 185   9.18780579e+02  9.18780576e+02  1.90e-04 3.95e-09  3.97e-09   216s
 186   9.18780566e+02  9.18780573e+02  1.78e-04 3.81e-09  3.92e-09   218s
 187   9.18780407e+02  9.18780570e+02  1.67e-04 3.35e-09  3.68e-09   219s
 188   9.18780466e+02  9.18780569e+02  1.59e-04 3.22e-09  3.49e-09   220s
 189   9.18780306e+02  9.18780568e+02  1.59e-04 3.17e-09  3.25e-09   222s
 190   9.18780330e+02  9.18780567e+02  1.60e-04 3.05e-09  3.20e-09   223s
 191   9.18779926e+02  9.18780565e+02  1.54e-04 2.86e-09  2.95e-09   224s
 192   9.18779917e+02  9.18780564e+02  1.63e-04 2.75e-09  2.80e-09   225s
 193   9.18779960e+02  9.18780564e+02  1.64e-04 2.58e-09  2.71e-09   226s
 194   9.18779980e+02  9.18780562e+02  1.65e-04 2.45e-09  2.66e-09   226s
 195   9.18779745e+02  9.18780562e+02  1.66e-04 2.43e-09  2.63e-09   227s
 196   9.18779709e+02  9.18780562e+02  1.57e-04 2.40e-09  2.57e-09   228s
 197   9.18779168e+02  9.18780562e+02  1.50e-04 2.36e-09  2.47e-09   229s
 198   9.18779197e+02  9.18780561e+02  1.57e-04 2.32e-09  2.38e-09   230s
 199   9.18779159e+02  9.18780561e+02  1.55e-04 2.32e-09  2.38e-09   231s
 200   9.18779398e+02  9.18780561e+02  1.52e-04 2.29e-09  2.20e-09   232s
 201   9.18779525e+02  9.18780561e+02  1.41e-04 2.18e-09  2.04e-09   233s
 202   9.18779651e+02  9.18780560e+02  1.38e-04 2.14e-09  1.99e-09   234s
 203   9.18779653e+02  9.18780561e+02  1.62e-04 2.06e-09  1.85e-09   235s
 204   9.18779543e+02  9.18780560e+02  1.60e-04 2.06e-09  1.85e-09   236s
 205   9.18780143e+02  9.18780560e+02  1.27e-04 2.00e-09  1.81e-09   237s
 206   9.18780118e+02  9.18780559e+02  1.23e-04 1.96e-09  1.70e-09   238s
 207   9.18779592e+02  9.18780558e+02  1.03e-04 1.70e-09  1.46e-09   239s
 208   9.18779663e+02  9.18780558e+02  1.02e-04 1.69e-09  1.46e-09   240s
 209   9.18779655e+02  9.18780558e+02  1.07e-04 1.68e-09  1.43e-09   241s
 210   9.18779684e+02  9.18780557e+02  1.05e-04 1.67e-09  1.41e-09   242s
 211   9.18779701e+02  9.18780557e+02  1.07e-04 1.67e-09  1.41e-09   243s
 212   9.18779580e+02  9.18780557e+02  1.01e-04 1.62e-09  1.36e-09   244s
 213   9.18779591e+02  9.18780558e+02  1.02e-04 1.62e-09  1.36e-09   245s
 214   9.18779591e+02  9.18780557e+02  1.04e-04 1.60e-09  1.34e-09   246s
 215   9.18779726e+02  9.18780557e+02  8.90e-05 1.59e-09  1.29e-09   247s
 216   9.18779693e+02  9.18780557e+02  8.74e-05 1.53e-09  1.21e-09   248s
 217   9.18779696e+02  9.18780557e+02  8.82e-05 1.52e-09  1.21e-09   249s
 218   9.18779712e+02  9.18780557e+02  9.01e-05 1.51e-09  1.20e-09   250s
 219   9.18779715e+02  9.18780557e+02  9.06e-05 1.51e-09  1.20e-09   251s
 220   9.18779467e+02  9.18780557e+02  1.05e-04 1.50e-09  1.20e-09   252s
 221   9.18779889e+02  9.18780556e+02  9.43e-05 1.49e-09  1.15e-09   253s
 222   9.18779859e+02  9.18780557e+02  9.49e-05 1.49e-09  1.15e-09   255s
 223   9.18779885e+02  9.18780556e+02  9.10e-05 1.48e-09  1.14e-09   256s
 224   9.18779982e+02  9.18780556e+02  1.05e-04 1.48e-09  1.14e-09   258s
 225   9.18779977e+02  9.18780556e+02  1.05e-04 1.48e-09  1.14e-09   259s
 226   9.18779827e+02  9.18780554e+02  1.02e-04 1.28e-09  1.04e-09   261s
 227   9.18779830e+02  9.18780553e+02  1.01e-04 1.25e-09  1.03e-09   263s
 228   9.18779691e+02  9.18780553e+02  9.87e-05 1.20e-09  9.96e-10   265s
 229   9.18779842e+02  9.18780553e+02  1.15e-04 1.16e-09  8.43e-10   267s
 230   9.18779804e+02  9.18780553e+02  1.16e-04 1.16e-09  8.43e-10   268s
 231   9.18780186e+02  9.18780552e+02  1.11e-04 1.10e-09  7.86e-10   270s
 232   9.18779922e+02  9.18780551e+02  1.20e-04 1.08e-09  7.40e-10   271s
 233   9.18779896e+02  9.18780551e+02  1.21e-04 1.07e-09  7.39e-10   273s
 234   9.18780368e+02  9.18780550e+02  2.22e-04 1.02e-09  7.25e-10   274s
 235   9.18780195e+02  9.18780550e+02  2.15e-04 1.00e-09  7.08e-10   275s
 236   9.18780270e+02  9.18780550e+02  2.07e-04 9.88e-10  6.92e-10   276s
 237   9.18780152e+02  9.18780550e+02  1.94e-04 9.85e-10  6.74e-10   277s
 238   9.18780213e+02  9.18780549e+02  1.82e-04 9.79e-10  6.59e-10   279s
 239   9.18780155e+02  9.18780549e+02  1.80e-04 9.63e-10  6.50e-10   280s
 240   9.18780170e+02  9.18780548e+02  1.79e-04 9.38e-10  6.41e-10   281s
 241   9.18780171e+02  9.18780547e+02  1.78e-04 9.06e-10  6.31e-10   282s
 242   9.18780215e+02  9.18780547e+02  1.76e-04 9.03e-10  6.27e-10   282s
 243   9.18780205e+02  9.18780547e+02  1.75e-04 9.02e-10  6.25e-10   284s
 244   9.18780170e+02  9.18780546e+02  1.74e-04 8.01e-10  6.06e-10   286s
 245   9.18780237e+02  9.18780546e+02  1.75e-04 8.01e-10  6.06e-10   287s

Barrier performed 245 iterations in 286.80 seconds (160.40 work units)
Sub-optimal termination - objective 9.18792248e+02

Optimization finished!
Restarting optimization for throughput iteration 1...
Gurobi Optimizer version 10.0.3 build v10.0.3rc0 (linux64)

CPU model: Intel(R) Xeon(R) Gold 6146 CPU @ 3.20GHz, instruction set [SSE2|AVX|AVX2|AVX512]
Thread count: 24 physical cores, 48 logical processors, using up to 24 threads

Optimize a model with 5790 rows, 2726 columns and 15783540 nonzeros
Model fingerprint: 0x2b0b571a
Coefficient statistics:
  Matrix range     [5e-13, 5e-04]
  Objective range  [2e-03, 1e+00]
  Bounds range     [1e+00, 1e+00]
  RHS range        [4e-06, 4e-06]
Presolve removed 0 rows and 0 columns (presolve time = 6s) ...
Presolve time: 7.04s
Presolved: 2726 rows, 8516 columns, 15786266 nonzeros
Ordering time: 0.07s

Barrier statistics:
 AA' NZ     : 3.714e+06
 Factor NZ  : 3.717e+06 (roughly 34 MB of memory)
 Factor Ops : 6.756e+09 (less than 1 second per iteration)
 Threads    : 24

                  Objective                Residual
Iter       Primal          Dual         Primal    Dual     Compl     Time
   0   5.58410719e+03  0.00000000e+00  0.00e+00 0.00e+00  9.74e-01    10s
   1   3.35941284e+03  6.25940106e+02  0.00e+00 1.73e-01  4.16e-01    11s
   2   2.34171943e+03  8.69034422e+02  0.00e+00 1.22e-01  2.44e-01    12s
   3   1.96394604e+03  1.02822876e+03  0.00e+00 9.25e-02  1.70e-01    13s
   4   1.68540431e+03  1.08817775e+03  0.00e+00 7.48e-02  1.28e-01    14s
   5   1.63118683e+03  1.09880995e+03  0.00e+00 6.65e-02  1.15e-01    14s
   6   1.58207413e+03  1.10013996e+03  0.00e+00 6.24e-02  1.07e-01    15s
   7   1.47256481e+03  1.11858326e+03  0.00e+00 5.43e-02  9.05e-02    16s
   8   1.29187305e+03  1.10962075e+03  0.00e+00 4.66e-02  7.22e-02    17s
   9   1.20580853e+03  1.09501579e+03  0.00e+00 4.00e-02  6.01e-02    18s
  10   1.14177068e+03  1.08935350e+03  0.00e+00 3.84e-02  5.42e-02    18s
  11   1.08761464e+03  1.07729385e+03  0.00e+00 3.62e-02  4.86e-02    19s
  12   1.04044543e+03  1.06334381e+03  0.00e+00 3.33e-02  4.26e-02    20s
  13   1.00983826e+03  1.04777020e+03  0.00e+00 3.05e-02  3.78e-02    21s
  14   9.75706713e+02  1.02696110e+03  0.00e+00 2.70e-02  3.21e-02    21s
  15   9.64489608e+02  1.01971752e+03  0.00e+00 2.59e-02  3.04e-02    22s
  16   9.45800473e+02  1.01277716e+03  0.00e+00 2.48e-02  2.79e-02    23s
  17   9.19320448e+02  9.77099647e+02  0.00e+00 1.96e-02  2.17e-02    23s
  18   9.01176905e+02  9.59336408e+02  0.00e+00 1.74e-02  1.89e-02    24s
  19   8.84835152e+02  9.52942475e+02  0.00e+00 1.67e-02  1.68e-02    25s
  20   8.72099548e+02  9.44296430e+02  0.00e+00 1.56e-02  1.46e-02    26s
  21   8.59120635e+02  9.18900352e+02  0.00e+00 1.26e-02  1.14e-02    27s
  22   8.51293733e+02  9.06440670e+02  0.00e+00 1.12e-02  9.60e-03    27s
  23   8.44083873e+02  8.98949021e+02  0.00e+00 1.03e-02  8.38e-03    28s
  24   8.31980826e+02  8.78243972e+02  0.00e+00 7.85e-03  5.63e-03    29s
  25   8.27209815e+02  8.62884945e+02  0.00e+00 6.12e-03  4.28e-03    29s
  26   8.20928389e+02  8.60689428e+02  0.00e+00 5.87e-03  3.42e-03    30s
  27   8.19617625e+02  8.39095479e+02  0.00e+00 3.44e-03  2.28e-03    31s
  28   8.15302149e+02  8.33877912e+02  0.00e+00 2.85e-03  1.60e-03    31s
  29   8.13323830e+02  8.32675473e+02  0.00e+00 2.71e-03  1.37e-03    32s
  30   8.12968617e+02  8.31149358e+02  0.00e+00 2.54e-03  1.27e-03    33s
  31   8.11868423e+02  8.28705011e+02  0.00e+00 2.28e-03  1.09e-03    33s
  32   8.10097274e+02  8.20140445e+02  0.00e+00 1.35e-03  6.11e-04    34s
  33   8.09019254e+02  8.16836260e+02  0.00e+00 9.83e-04  3.99e-04    35s
  34   8.08721245e+02  8.15701212e+02  0.00e+00 8.57e-04  3.35e-04    36s
  35   8.08697301e+02  8.15246557e+02  0.00e+00 8.07e-04  3.16e-04    37s
  36   8.08541189e+02  8.13759585e+02  0.00e+00 6.48e-04  2.58e-04    37s
  37   8.08147674e+02  8.11527110e+02  0.00e+00 4.09e-04  1.55e-04    38s
  38   8.08025134e+02  8.09937446e+02  0.00e+00 2.37e-04  9.46e-05    39s
  39   8.07901823e+02  8.08714389e+02  0.00e+00 1.07e-04  4.71e-05    40s
  40   8.07855722e+02  8.07953355e+02  0.00e+00 2.58e-05  2.02e-05    40s
  41   8.07824864e+02  8.07824995e+02  0.00e+00 1.18e-05  1.32e-05    41s
  42   8.07783603e+02  8.07768306e+02  0.00e+00 5.47e-06  7.49e-06    42s
  43   8.07747436e+02  8.07737598e+02  6.11e-08 2.05e-06  3.17e-06    43s
  44   8.07746693e+02  8.07735182e+02  1.01e-06 1.77e-06  3.01e-06    44s
  45   8.07743766e+02  8.07728994e+02  4.61e-06 1.08e-06  2.53e-06    45s
  46   8.07740969e+02  8.07724094e+02  5.81e-06 5.45e-07  2.11e-06    46s
  47   8.07740960e+02  8.07724078e+02  5.67e-06 5.43e-07  2.11e-06    47s
  48   8.07739943e+02  8.07723137e+02  1.02e-05 4.34e-07  1.98e-06    48s
  49   8.07739622e+02  8.07723007e+02  2.39e-05 4.19e-07  1.91e-06    49s
  50   8.07739679e+02  8.07722979e+02  3.15e-05 4.16e-07  1.90e-06    50s
  51   8.07737825e+02  8.07722527e+02  3.37e-05 3.61e-07  1.73e-06    52s
  52   8.07737791e+02  8.07722507e+02  4.02e-05 3.59e-07  1.73e-06    53s
  53   8.07736345e+02  8.07721883e+02  5.21e-05 2.86e-07  1.54e-06    54s
  54   8.07733627e+02  8.07721782e+02  8.34e-05 2.73e-07  1.35e-06    55s
  55   8.07733470e+02  8.07721671e+02  8.99e-05 2.60e-07  1.33e-06    56s
  56   8.07733088e+02  8.07721652e+02  1.01e-04 2.58e-07  1.33e-06    57s
  57   8.07732874e+02  8.07721560e+02  1.18e-04 2.47e-07  1.28e-06    58s
  58   8.07732884e+02  8.07721502e+02  1.16e-04 2.40e-07  1.27e-06    60s
  59   8.07732582e+02  8.07721438e+02  1.10e-04 2.33e-07  1.24e-06    61s
  60   8.07732500e+02  8.07721423e+02  1.18e-04 2.31e-07  1.23e-06    62s
  61   8.07732429e+02  8.07721418e+02  1.05e-04 2.30e-07  1.22e-06    63s
  62   8.07732001e+02  8.07721333e+02  1.01e-04 2.20e-07  1.17e-06    64s
  63   8.07731760e+02  8.07721244e+02  9.74e-05 2.11e-07  1.13e-06    65s
  64   8.07730897e+02  8.07721128e+02  8.55e-05 1.97e-07  1.09e-06    66s
  65   8.07728895e+02  8.07720759e+02  1.13e-04 1.55e-07  9.31e-07    68s
  66   8.07728554e+02  8.07720719e+02  1.07e-04 1.50e-07  8.89e-07    69s
  67   8.07728120e+02  8.07720696e+02  1.09e-04 1.47e-07  8.57e-07    70s
  68   8.07728048e+02  8.07720660e+02  1.06e-04 1.43e-07  8.53e-07    71s
  69   8.07727327e+02  8.07720571e+02  9.37e-05 1.31e-07  7.83e-07    72s
  70   8.07727122e+02  8.07720528e+02  9.12e-05 1.26e-07  7.59e-07    73s
  71   8.07726708e+02  8.07720453e+02  8.18e-05 1.16e-07  6.88e-07    74s
  72   8.07726852e+02  8.07720453e+02  9.31e-05 1.16e-07  6.88e-07    75s
  73   8.07726815e+02  8.07720427e+02  8.78e-05 1.13e-07  6.79e-07    76s
  74   8.07726365e+02  8.07720393e+02  6.98e-05 1.09e-07  6.49e-07    78s
  75   8.07726309e+02  8.07720380e+02  7.07e-05 1.07e-07  6.46e-07    79s
  76   8.07726145e+02  8.07720363e+02  7.18e-05 1.05e-07  6.26e-07    80s
  77   8.07726026e+02  8.07720364e+02  8.30e-05 1.05e-07  6.26e-07    81s
  78   8.07725001e+02  8.07720142e+02  7.43e-05 7.88e-08  5.16e-07    82s
  79   8.07724970e+02  8.07720134e+02  7.19e-05 7.79e-08  5.11e-07    83s
  80   8.07724327e+02  8.07720068e+02  7.34e-05 6.98e-08  4.67e-07    84s
  81   8.07724350e+02  8.07720068e+02  7.87e-05 6.98e-08  4.67e-07    86s
  82   8.07724020e+02  8.07719965e+02  6.43e-05 5.72e-08  4.40e-07    87s
  83   8.07723906e+02  8.07719931e+02  6.53e-05 5.35e-08  4.31e-07    88s
  84   8.07723903e+02  8.07719930e+02  7.09e-05 5.33e-08  4.30e-07    89s
  85   8.07723803e+02  8.07719929e+02  7.62e-05 5.33e-08  4.30e-07    90s
  86   8.07723505e+02  8.07719881e+02  6.73e-05 4.75e-08  3.94e-07    91s
  87   8.07723502e+02  8.07719871e+02  7.02e-05 4.65e-08  3.89e-07    93s
  88   8.07723345e+02  8.07719864e+02  7.36e-05 4.55e-08  3.80e-07    94s
  89   8.07723127e+02  8.07719818e+02  9.66e-05 3.92e-08  3.52e-07    96s
  90   8.07721666e+02  8.07719733e+02  1.43e-04 2.93e-08  2.52e-07    97s
  91   8.07721682e+02  8.07719701e+02  1.23e-04 2.51e-08  2.21e-07    99s
  92   8.07721502e+02  8.07719606e+02  1.17e-04 1.39e-08  1.26e-07   101s
  93   8.07721298e+02  8.07719605e+02  1.05e-04 1.37e-08  1.20e-07   103s
  94   8.07721150e+02  8.07719597e+02  1.32e-04 1.27e-08  1.12e-07   104s
  95   8.07721180e+02  8.07719595e+02  1.31e-04 1.25e-08  1.10e-07   105s
  96   8.07720907e+02  8.07719593e+02  1.25e-04 1.23e-08  1.09e-07   106s
  97   8.07720780e+02  8.07719589e+02  1.26e-04 1.18e-08  1.05e-07   107s
  98   8.07720750e+02  8.07719589e+02  1.14e-04 1.17e-08  9.97e-08   108s
  99   8.07720735e+02  8.07719586e+02  1.21e-04 1.13e-08  9.73e-08   109s
 100   8.07720721e+02  8.07719586e+02  1.24e-04 1.13e-08  9.72e-08   110s
 101   8.07720120e+02  8.07719582e+02  1.37e-04 1.07e-08  9.05e-08   112s
 102   8.07720115e+02  8.07719581e+02  1.36e-04 1.06e-08  9.03e-08   113s
 103   8.07720128e+02  8.07719581e+02  1.37e-04 1.06e-08  9.03e-08   114s
 104   8.07720126e+02  8.07719581e+02  1.36e-04 1.06e-08  9.03e-08   115s
 105   8.07720139e+02  8.07719581e+02  1.36e-04 1.06e-08  9.01e-08   116s
 106   8.07720249e+02  8.07719566e+02  1.34e-04 9.41e-09  8.24e-08   118s
 107   8.07720186e+02  8.07719552e+02  1.61e-04 7.79e-09  7.59e-08   120s
 108   8.07720223e+02  8.07719551e+02  1.56e-04 7.75e-09  7.56e-08   121s
 109   8.07720054e+02  8.07719546e+02  1.56e-04 7.06e-09  7.06e-08   123s
 110   8.07719695e+02  8.07719542e+02  1.42e-04 6.38e-09  5.94e-08   125s
 111   8.07719706e+02  8.07719542e+02  1.41e-04 6.15e-09  5.89e-08   126s
 112   8.07719401e+02  8.07719542e+02  1.63e-04 5.99e-09  5.68e-08   128s
 113   8.07719461e+02  8.07719540e+02  1.62e-04 5.75e-09  5.52e-08   129s
 114   8.07719158e+02  8.07719539e+02  1.42e-04 5.48e-09  5.22e-08   131s
 115   8.07719561e+02  8.07719539e+02  1.58e-04 5.46e-09  5.17e-08   132s
 116   8.07719510e+02  8.07719538e+02  1.58e-04 5.36e-09  5.13e-08   133s
 117   8.07719518e+02  8.07719531e+02  1.59e-04 4.53e-09  4.50e-08   134s
 118   8.07719405e+02  8.07719531e+02  1.37e-04 4.53e-09  4.50e-08   135s
 119   8.07719332e+02  8.07719525e+02  1.27e-04 4.28e-09  4.24e-08   136s
 120   8.07719271e+02  8.07719523e+02  1.33e-04 4.11e-09  4.01e-08   138s
 121   8.07719074e+02  8.07719522e+02  1.23e-04 3.79e-09  3.75e-08   139s
 122   8.07719201e+02  8.07719521e+02  1.10e-04 3.49e-09  3.58e-08   139s
 123   8.07719311e+02  8.07719520e+02  1.11e-04 3.23e-09  3.51e-08   140s
 124   8.07719345e+02  8.07719520e+02  1.20e-04 3.20e-09  3.44e-08   141s
 125   8.07719262e+02  8.07719520e+02  1.27e-04 3.20e-09  3.35e-08   142s
 126   8.07719215e+02  8.07719516e+02  1.16e-04 2.57e-09  3.00e-08   143s
 127   8.07719187e+02  8.07719514e+02  1.16e-04 2.43e-09  2.97e-08   144s
 128   8.07719411e+02  8.07719514e+02  1.11e-04 2.38e-09  2.83e-08   145s
 129   8.07719797e+02  8.07719514e+02  1.42e-04 2.38e-09  2.81e-08   146s
 130   8.07719722e+02  8.07719513e+02  1.43e-04 2.33e-09  2.78e-08   147s
 131   8.07719660e+02  8.07719512e+02  1.55e-04 2.25e-09  2.69e-08   148s
 132   8.07719230e+02  8.07719512e+02  1.44e-04 2.05e-09  2.27e-08   149s
 133   8.07719232e+02  8.07719511e+02  1.44e-04 2.04e-09  2.27e-08   150s
 134   8.07719243e+02  8.07719512e+02  1.47e-04 1.97e-09  2.25e-08   151s
 135   8.07719229e+02  8.07719512e+02  1.40e-04 1.93e-09  2.23e-08   152s
 136   8.07718988e+02  8.07719511e+02  1.48e-04 1.84e-09  2.20e-08   153s
 137   8.07718835e+02  8.07719510e+02  1.26e-04 1.77e-09  1.99e-08   154s
 138   8.07718870e+02  8.07719510e+02  1.31e-04 1.70e-09  1.93e-08   155s
 139   8.07719225e+02  8.07719510e+02  1.30e-04 1.60e-09  1.76e-08   156s
 140   8.07719192e+02  8.07719509e+02  1.28e-04 1.58e-09  1.74e-08   157s
 141   8.07719323e+02  8.07719508e+02  1.39e-04 1.56e-09  1.71e-08   158s
 142   8.07719343e+02  8.07719508e+02  1.36e-04 1.56e-09  1.71e-08   159s
 143   8.07719388e+02  8.07719507e+02  1.36e-04 1.49e-09  1.69e-08   161s
 144   8.07719278e+02  8.07719508e+02  1.35e-04 1.46e-09  1.67e-08   163s
 145   8.07719479e+02  8.07719507e+02  1.21e-04 1.46e-09  1.67e-08   164s
 146   8.07719427e+02  8.07719509e+02  9.94e-05 1.38e-09  1.59e-08   165s
 147   8.07719439e+02  8.07719508e+02  9.77e-05 1.32e-09  1.57e-08   167s
 148   8.07719490e+02  8.07719509e+02  1.00e-04 1.32e-09  1.57e-08   168s
 149   8.07719476e+02  8.07719508e+02  9.48e-05 1.26e-09  1.53e-08   169s
 150   8.07719504e+02  8.07719508e+02  9.14e-05 1.26e-09  1.51e-08   170s
 151   8.07719267e+02  8.07719508e+02  1.02e-04 1.26e-09  1.51e-08   172s
 152   8.07719642e+02  8.07719508e+02  1.18e-04 1.24e-09  1.46e-08   173s
 153   8.07719644e+02  8.07719508e+02  1.18e-04 1.22e-09  1.44e-08   174s
 154   8.07719702e+02  8.07719506e+02  1.19e-04 1.19e-09  1.42e-08   176s
 155   8.07719745e+02  8.07719506e+02  1.17e-04 1.14e-09  1.39e-08   177s
 156   8.07720594e+02  8.07719506e+02  1.66e-04 1.14e-09  1.38e-08   178s
 157   8.07720783e+02  8.07719505e+02  1.57e-04 1.14e-09  1.35e-08   180s
 158   8.07720749e+02  8.07719505e+02  1.55e-04 1.13e-09  1.34e-08   181s
 159   8.07720711e+02  8.07719505e+02  1.53e-04 1.13e-09  1.34e-08   182s
 160   8.07720738e+02  8.07719505e+02  1.65e-04 1.12e-09  1.32e-08   183s
 161   8.07720864e+02  8.07719504e+02  1.78e-04 1.07e-09  1.24e-08   184s
 162   8.07720868e+02  8.07719504e+02  1.79e-04 1.07e-09  1.24e-08   186s
 163   8.07720814e+02  8.07719503e+02  1.57e-04 8.77e-10  1.17e-08   187s
 164   8.07720801e+02  8.07719503e+02  1.49e-04 8.54e-10  1.15e-08   188s
 165   8.07720934e+02  8.07719503e+02  1.50e-04 8.54e-10  1.15e-08   189s
 166   8.07720876e+02  8.07719503e+02  1.50e-04 8.43e-10  1.12e-08   191s
 167   8.07721026e+02  8.07719503e+02  1.28e-04 8.36e-10  1.09e-08   192s
 168   8.07721047e+02  8.07719503e+02  1.32e-04 8.35e-10  1.09e-08   193s
 169   8.07721058e+02  8.07719502e+02  1.25e-04 8.26e-10  1.08e-08   194s
 170   8.07721098e+02  8.07719502e+02  1.24e-04 8.23e-10  1.08e-08   196s
 171   8.07720961e+02  8.07719502e+02  1.09e-04 8.21e-10  1.08e-08   197s
 172   8.07720879e+02  8.07719502e+02  1.11e-04 8.11e-10  1.06e-08   198s
 173   8.07720859e+02  8.07719502e+02  1.10e-04 8.01e-10  1.05e-08   200s
 174   8.07720839e+02  8.07719502e+02  1.08e-04 7.67e-10  1.04e-08   202s

Barrier performed 174 iterations in 201.69 seconds (106.68 work units)
Sub-optimal termination - objective 8.07740969e+02

/user/bnickson/GitHub/LUVex_TelAps/aplc_optimization/surveys/usort_offaxis_survey_N0128_telserv3/FPM36_IWA35/drivers/02_USORT_N128_FPM360M0150_IWA0350_OWA01400_C10_BW20_Nlam5_LS_IDc_ID0_OD_OD0_ls_90_ovsamp16_.py:102: DeprecationWarning: circular_aperture is deprecated. Its new name is make_circular_aperture.
  dark_zone_mask = circular_aperture(img_owa * 2)(focal_grid) - circular_aperture(img_iwa * 2)(focal_grid)
/user/bnickson/GitHub/LUVex_TelAps/aplc_optimization/surveys/usort_offaxis_survey_N0128_telserv3/FPM36_IWA35/drivers/02_USORT_N128_FPM360M0150_IWA0350_OWA01400_C10_BW20_Nlam5_LS_IDc_ID0_OD_OD0_ls_90_ovsamp16_.py:110: DeprecationWarning: circular_aperture is deprecated. Its new name is make_circular_aperture.
  focal_plane_mask = 1 - evaluate_supersampled(circular_aperture(2 * fpm_radius), focal_mask_grid, 8)
WARNING: VerifyWarning: Keyword name 'LS_ALIGN_TOl' is greater than 8 characters or contains characters not allowed by the FITS standard; a HIERARCH card will be created. [astropy.io.fits.card]
WARNING: VerifyWarning: Keyword name 'LS_NUM_STOPS' is greater than 8 characters or contains characters not allowed by the FITS standard; a HIERARCH card will be created. [astropy.io.fits.card]
WARNING: VerifyWarning: Keyword name 'PROG_START' is greater than 8 characters or contains characters not allowed by the FITS standard; a HIERARCH card will be created. [astropy.io.fits.card]
WARNING: VerifyWarning: Keyword name 'PROG_EDGE' is greater than 8 characters or contains characters not allowed by the FITS standard; a HIERARCH card will be created. [astropy.io.fits.card]
WARNING: VerifyWarning: Keyword name 'THRPT_ITER' is greater than 8 characters or contains characters not allowed by the FITS standard; a HIERARCH card will be created. [astropy.io.fits.card]
WARNING: VerifyWarning: Keyword name 'THRPT_ESTIM' is greater than 8 characters or contains characters not allowed by the FITS standard; a HIERARCH card will be created. [astropy.io.fits.card]
WARNING: VerifyWarning: Keyword name 'MAX_THRPT' is greater than 8 characters or contains characters not allowed by the FITS standard; a HIERARCH card will be created. [astropy.io.fits.card]
WARNING: VerifyWarning: Keyword name 'SLV_THRDS' is greater than 8 characters or contains characters not allowed by the FITS standard; a HIERARCH card will be created. [astropy.io.fits.card]
WARNING: VerifyWarning: Keyword name 'SLV_XOVER' is greater than 8 characters or contains characters not allowed by the FITS standard; a HIERARCH card will be created. [astropy.io.fits.card]
Optimization finished!
